50, 699
18, 18
12, 12
42, 42
20, 20
26, 26
12, 12
16, 16
24, 24
48, 48
24, 24
22, 22
18, 18
30, 30
36, 36
38, 38
20, 20
40, 40
2, 2
40, 40
34, 34
24, 24
14, 14
24, 24
46, 46
36, 36
14, 14
32, 32
48, 48
50, 50
44, 44
28, 28
20, 20
12, 12
46, 46
30, 30
16, 16
32, 32
14, 14
48, 48
4, 4
12, 12
22, 22
18, 18
46, 46
34, 34
38, 38
34, 34
6, 6
36, 36
48, 48
